% File represents an instance of a Composite Structure problem to be solved by a CP framework
% Created on 2025-03-26 10:41:25.361
T = 58;
n = 16;
m = 24;
edges = [(1, 2),
(5, 6),
(9, 10),
(13, 14),
(2, 3),
(6, 7),
(10, 11),
(15, 14),
(3, 4),
(7, 8),
(12, 11),
(16, 15),
(5, 1),
(5, 9),
(9, 13),
(6, 2),
(6, 10),
(10, 14),
(7, 3),
(7, 11),
(15, 11),
(8, 4),
(12, 8),
(16, 12)];
counts = [|20, 4, 20, 10,
|20, 4, 20, 4,
|18, 4, 18, 4,
|18, 2, 18, 4,
|20, 8, 20, 10,
|20, 4, 20, 10,
|20, 4, 20, 6,
|20, 2, 20, 6,
|20, 8, 20, 4,
|20, 4, 20, 4,
|20, 2, 20, 4,
|22, 2, 22, 6,
|20, 2, 20, 4,
|20, 2, 20, 2,
|22, 2, 22, 4,
|24, 2, 24, 6|];
